nN = 10;
nR = 60;
nH = 2;

a = [[16, 25, 25, 19, 16, 20, 16, 16, 18, 16, 18, 16, 21, 18, 17, 20, 16, 18, 19, 15, 19, 17, 15, 25, 22, 24, 19, 22, 15, 25, 19, 20, 18, 25, 24, 20, 23, 21, 24, 19, 18, 25, 21, 18, 22, 15, 15, 24, 17, 24, 21, 19, 18, 24, 18, 17, 23, 24, 16, 21], [20, 20, 21, 18, 23, 15, 20, 25, 17, 15, 23, 15, 18, 24, 18, 22, 20, 24, 15, 24, 24, 18, 18, 21, 19, 16, 25, 16, 21, 21, 17, 25, 15, 24, 25, 21, 23, 19, 23, 19, 25, 23, 25, 23, 16, 18, 21, 23, 21, 15, 24, 21, 20, 21, 22, 16, 23, 21, 24, 22], [25, 19, 17, 21, 20, 23, 22, 22, 20, 15, 17, 25, 19, 24, 19, 15, 18, 15, 25, 23, 15, 15, 23, 20, 18, 22, 24, 19, 24, 15, 18, 15, 15, 23, 25, 19, 19, 19, 20, 24, 22, 25, 21, 15, 16, 22, 23, 15, 15, 24, 24, 15, 18, 24, 20, 25, 18, 16, 17, 15], [18, 25, 20, 19, 16, 20, 16, 19, 16, 17, 23, 23, 16, 17, 16, 24, 21, 23, 24, 17, 23, 16, 15, 23, 21, 17, 23, 23, 17, 24, 24, 21, 19, 24, 23, 25, 18, 17, 19, 17, 17, 20, 21, 24, 15, 24, 25, 24, 23, 15, 23, 18, 22, 16, 23, 16, 21, 17, 21, 25], [16, 20, 24, 17, 17, 23, 17, 17, 17, 18, 22, 24, 23, 23, 20, 23, 15, 21, 25, 17, 15, 18, 19, 21, 23, 18, 21, 21, 24, 18, 21, 15, 20, 23, 23, 23, 23, 19, 16, 24, 22, 20, 22, 19, 24, 24, 18, 25, 23, 15, 18, 23, 22, 17, 23, 17, 25, 19, 25, 18], [19, 15, 22, 21, 21, 17, 15, 24, 15, 24, 25, 21, 25, 19, 17, 23, 21, 20, 16, 24, 24, 23, 24, 23, 16, 23, 20, 20, 17, 17, 19, 19, 15, 19, 23, 19, 19, 22, 20, 15, 23, 19, 24, 19, 25, 23, 18, 15, 15, 15, 15, 19, 16, 19, 24, 17, 17, 22, 17, 15], [23, 24, 16, 18, 24, 23, 16, 21, 21, 19, 15, 22, 24, 18, 17, 17, 16, 22, 18, 16, 17, 20, 19, 16, 19, 18, 17, 16, 20, 18, 18, 18, 19, 18, 17, 16, 16, 18, 25, 25, 19, 25, 24, 21, 25, 22, 22, 18, 18, 16, 15, 21, 15, 17, 22, 23, 15, 19, 19, 18], [17, 23, 23, 23, 16, 17, 23, 19, 17, 25, 16, 20, 24, 22, 17, 19, 25, 17, 24, 18, 18, 20, 23, 20, 18, 24, 18, 18, 18, 17, 21, 22, 23, 24, 17, 20, 21, 19, 16, 19, 15, 21, 19, 24, 18, 22, 24, 15, 16, 21, 24, 25, 17, 22, 17, 22, 15, 18, 19, 16], [16, 25, 24, 17, 15, 25, 16, 15, 16, 25, 25, 20, 19, 20, 15, 18, 17, 23, 22, 15, 25, 19, 22, 22, 16, 17, 18, 24, 21, 19, 22, 23, 25, 15, 25, 24, 25, 15, 15, 24, 20, 24, 25, 20, 15, 25, 22, 17, 21, 23, 25, 17, 16, 23, 20, 19, 23, 24, 20, 20], [19, 20, 15, 18, 23, 21, 20, 23, 15, 24, 25, 24, 21, 20, 21, 25, 19, 15, 20, 21, 22, 15, 25, 24, 18, 16, 16, 22, 23, 20, 21, 22, 15, 21, 18, 19, 22, 18, 23, 25, 18, 16, 20, 20, 15, 25, 18, 23, 17, 22, 24, 23, 22, 20, 21, 18, 19, 20, 22, 24]];
c = [[[0, 0, 0, 0, 0, 0, 0, 0, 0, 0, 0, 0, 0, 0, 0, 0, 0, 0, 0, 0, 0, 0, 0, 0, 0, 0, 0, 0, 0, 0, 0, 0, 0, 0, 0, 0, 0, 0, 0, 0, 0, 0, 0, 0, 0, 0, 0, 0, 0, 0, 0, 0, 0, 0, 0, 0, 0, 0, 0, 0], [33, 38, 47, 34, 47, 31, 35, 49, 33, 45, 33, 32, 33, 49, 44, 31, 37, 47, 41, 34, 30, 32, 39, 49, 33, 32, 37, 49, 36, 43, 49, 48, 30, 48, 35, 33, 30, 36, 40, 40, 46, 42, 32, 42, 45, 34, 40, 43, 39, 48, 44, 49, 41, 44, 50, 46, 50, 30, 31, 34], [32, 45, 43, 44, 32, 40, 36, 35, 45, 44, 49, 31, 49, 31, 39, 36, 49, 36, 46, 40, 46, 40, 43, 48, 30, 31, 40, 43, 30, 48, 30, 35, 32, 41, 33, 43, 46, 34, 38, 42, 43, 47, 34, 48, 41, 31, 35, 44, 44, 48, 41, 48, 40, 34, 35, 37, 43, 42, 48, 35], [37, 50, 41, 33, 47, 33, 33, 35, 49, 34, 31, 45, 46, 32, 33, 45, 43, 50, 36, 38, 42, 30, 38, 48, 44, 46, 44, 35, 39, 42, 30, 37, 47, 35, 43, 48, 47, 47, 34, 45, 41, 46, 43, 30, 35, 35, 39, 33, 34, 45, 38, 35, 39, 49, 42, 46, 34, 45, 34, 35], [31, 31, 36, 48, 39, 38, 34, 47, 39, 38, 40, 46, 41, 49, 34, 40, 40, 47, 34, 48, 30, 34, 48, 30, 46, 41, 39, 44, 38, 44, 40, 37, 41, 35, 48, 39, 31, 43, 34, 48, 50, 44, 32, 42, 43, 31, 32, 37, 49, 50, 36, 39, 50, 41, 37, 46, 35, 41, 49, 39], [30, 43, 37, 49, 35, 31, 33, 33, 48, 49, 39, 30, 40, 37, 32, 43, 46, 47, 41, 32, 34, 44, 35, 46, 32, 36, 31, 32, 39, 42, 49, 44, 37, 35, 35, 30, 43, 38, 47, 46, 43, 43, 32, 33, 41, 39, 47, 46, 45, 33, 33, 38, 49, 41, 39, 50, 42, 33, 44, 45], [30, 48, 42, 34, 35, 42, 45, 30, 39, 47, 41, 43, 50, 40, 50, 47, 32, 39, 33, 48, 50, 35, 42, 43, 50, 35, 40, 44, 44, 45, 31, 49, 36, 42, 50, 39, 48, 34, 39, 50, 50, 31, 48, 37, 30, 46, 32, 38, 44, 34, 39, 50, 45, 41, 35, 32, 35, 49, 41, 48], [38, 37, 37, 47, 40, 34, 48, 34, 50, 30, 45, 46, 44, 32, 49, 49, 43, 33, 50, 49, 33, 40, 31, 49, 48, 32, 37, 50, 49, 46, 38, 30, 37, 49, 32, 38, 40, 50, 36, 39, 45, 39, 38, 48, 46, 30, 35, 43, 36, 37, 50, 35, 33, 32, 46, 39, 44, 35, 30, 38], [41, 35, 31, 45, 42, 38, 32, 34, 41, 30, 45, 45, 34, 33, 36, 38, 48, 37, 34, 45, 44, 38, 43, 32, 37, 32, 43, 40, 33, 45, 47, 47, 37, 49, 48, 42, 37, 46, 32, 47, 48, 30, 43, 35, 49, 47, 35, 44, 36, 32, 41, 43, 33, 38, 35, 39, 37, 43, 32, 34], [43, 48, 44, 35, 50, 36, 39, 48, 49, 34, 43, 31, 37, 40, 40, 45, 38, 46, 41, 36, 39, 45, 46, 31, 36, 45, 39, 49, 44, 32, 37, 36, 49, 33, 38, 45, 38, 31, 30, 36, 38, 33, 35, 37, 31, 30, 48, 34, 46, 38, 39, 48, 36, 48, 45, 43, 30, 30, 46, 35]], [[0, 0, 0, 0, 0, 0, 0, 0, 0, 0, 0, 0, 0, 0, 0, 0, 0, 0, 0, 0, 0, 0, 0, 0, 0, 0, 0, 0, 0, 0, 0, 0, 0, 0, 0, 0, 0, 0, 0, 0, 0, 0, 0, 0, 0, 0, 0, 0, 0, 0, 0, 0, 0, 0, 0, 0, 0, 0, 0, 0], [0, 0, 0, 0, 0, 0, 0, 0, 0, 0, 0, 0, 0, 0, 0, 0, 0, 0, 0, 0, 0, 0, 0, 0, 0, 0, 0, 0, 0, 0, 0, 0, 0, 0, 0, 0, 0, 0, 0, 0, 0, 0, 0, 0, 0, 0, 0, 0, 0, 0, 0, 0, 0, 0, 0, 0, 0, 0, 0, 0], [37, 45, 33, 38, 33, 46, 32, 45, 50, 38, 47, 47, 41, 36, 43, 40, 47, 32, 50, 43, 39, 44, 34, 47, 45, 45, 50, 36, 44, 33, 34, 48, 33, 30, 34, 50, 31, 39, 44, 33, 38, 48, 34, 50, 35, 38, 38, 36, 50, 39, 37, 49, 49, 43, 39, 37, 50, 45, 31, 30], [34, 30, 37, 39, 49, 32, 39, 42, 40, 35, 42, 50, 50, 41, 47, 43, 37, 39, 46, 46, 34, 48, 36, 35, 40, 34, 37, 30, 45, 34, 44, 31, 30, 47, 37, 49, 50, 47, 35, 47, 46, 39, 30, 39, 43, 46, 45, 34, 32, 32, 50, 33, 36, 47, 35, 43, 35, 31, 36, 41], [44, 44, 49, 49, 37, 45, 49, 31, 34, 35, 50, 48, 30, 49, 41, 35, 50, 37, 43, 31, 38, 34, 31, 38, 42, 33, 33, 48, 40, 42, 39, 47, 44, 42, 48, 31, 31, 32, 49, 36, 31, 34, 49, 43, 49, 44, 36, 36, 48, 35, 50, 35, 34, 48, 33, 39, 37, 49, 50, 45], [36, 37, 46, 31, 49, 34, 33, 46, 36, 50, 45, 50, 36, 40, 32, 41, 35, 39, 30, 46, 32, 34, 46, 30, 32, 46, 31, 40, 36, 32, 45, 38, 34, 37, 32, 39, 40, 47, 30, 38, 30, 37, 42, 49, 45, 34, 42, 42, 39, 31, 35, 32, 48, 47, 43, 31, 47, 48, 32, 42], [32, 48, 47, 41, 36, 30, 47, 45, 35, 30, 35, 33, 41, 30, 49, 37, 38, 36, 39, 47, 42, 30, 38, 35, 37, 38, 50, 31, 44, 38, 42, 50, 43, 36, 45, 50, 42, 38, 47, 34, 33, 45, 30, 31, 41, 46, 40, 31, 50, 45, 47, 49, 35, 33, 41, 35, 30, 32, 37, 48], [41, 50, 46, 41, 31, 48, 50, 32, 37, 46, 38, 47, 46, 42, 32, 31, 35, 42, 40, 31, 46, 41, 41, 40, 46, 32, 40, 47, 43, 30, 40, 31, 49, 49, 32, 47, 38, 40, 34, 43, 38, 41, 50, 34, 42, 42, 32, 48, 49, 49, 46, 33, 45, 38, 49, 48, 36, 34, 45, 32], [39, 49, 41, 34, 34, 42, 50, 39, 47, 30, 41, 44, 47, 45, 34, 44, 40, 43, 37, 31, 30, 47, 42, 45, 44, 42, 48, 31, 38, 40, 48, 42, 48, 34, 44, 46, 46, 34, 38, 32, 50, 42, 37, 32, 42, 31, 45, 30, 49, 41, 32, 33, 48, 35, 47, 50, 40, 49, 31, 33], [44, 48, 45, 49, 47, 44, 42, 41, 36, 35, 34, 35, 38, 34, 41, 34, 42, 45, 47, 35, 30, 44, 42, 38, 49, 38, 45, 31, 46, 49, 39, 30, 42, 49, 49, 47, 41, 50, 32, 35, 41, 30, 44, 30, 37, 38, 39, 30, 32, 37, 49, 49, 33, 35, 47, 30, 31, 42, 38, 50]], [[0, 0, 0, 0, 0, 0, 0, 0, 0, 0, 0, 0, 0, 0, 0, 0, 0, 0, 0, 0, 0, 0, 0, 0, 0, 0, 0, 0, 0, 0, 0, 0, 0, 0, 0, 0, 0, 0, 0, 0, 0, 0, 0, 0, 0, 0, 0, 0, 0, 0, 0, 0, 0, 0, 0, 0, 0, 0, 0, 0], [0, 0, 0, 0, 0, 0, 0, 0, 0, 0, 0, 0, 0, 0, 0, 0, 0, 0, 0, 0, 0, 0, 0, 0, 0, 0, 0, 0, 0, 0, 0, 0, 0, 0, 0, 0, 0, 0, 0, 0, 0, 0, 0, 0, 0, 0, 0, 0, 0, 0, 0, 0, 0, 0, 0, 0, 0, 0, 0, 0], [0, 0, 0, 0, 0, 0, 0, 0, 0, 0, 0, 0, 0, 0, 0, 0, 0, 0, 0, 0, 0, 0, 0, 0, 0, 0, 0, 0, 0, 0, 0, 0, 0, 0, 0, 0, 0, 0, 0, 0, 0, 0, 0, 0, 0, 0, 0, 0, 0, 0, 0, 0, 0, 0, 0, 0, 0, 0, 0, 0], [46, 49, 37, 36, 34, 44, 34, 49, 40, 44, 47, 38, 32, 49, 43, 37, 42, 32, 35, 45, 36, 41, 48, 31, 45, 45, 38, 43, 49, 30, 45, 41, 33, 39, 32, 38, 43, 43, 41, 40, 30, 46, 37, 35, 48, 36, 37, 30, 33, 48, 43, 35, 44, 30, 43, 39, 39, 43, 45, 37], [47, 30, 39, 40, 48, 47, 36, 44, 42, 44, 37, 31, 35, 35, 41, 33, 37, 45, 47, 34, 46, 33, 47, 36, 38, 34, 44, 31, 33, 45, 48, 42, 50, 49, 33, 44, 30, 39, 49, 48, 36, 30, 39, 40, 35, 34, 32, 39, 37, 41, 33, 45, 45, 35, 33, 42, 36, 46, 41, 36], [30, 42, 46, 46, 50, 43, 48, 35, 43, 37, 42, 37, 46, 41, 36, 32, 35, 31, 36, 43, 43, 46, 48, 36, 44, 48, 31, 36, 46, 39, 45, 32, 44, 33, 49, 46, 38, 47, 31, 44, 34, 31, 32, 50, 39, 34, 35, 30, 49, 45, 50, 44, 50, 38, 39, 41, 48, 45, 33, 47], [50, 43, 40, 38, 35, 47, 31, 46, 45, 31, 31, 46, 42, 48, 39, 43, 34, 37, 31, 32, 34, 33, 44, 44, 34, 42, 36, 34, 44, 43, 35, 35, 42, 50, 38, 32, 34, 39, 39, 38, 41, 46, 49, 44, 46, 49, 49, 46, 41, 45, 37, 48, 47, 37, 50, 32, 31, 40, 31, 43], [30, 38, 48, 30, 50, 49, 39, 34, 50, 37, 36, 33, 49, 46, 50, 37, 32, 48, 32, 45, 46, 33, 42, 49, 42, 50, 30, 39, 39, 30, 36, 48, 35, 40, 38, 43, 35, 40, 43, 40, 35, 49, 49, 46, 36, 50, 33, 35, 37, 39, 31, 42, 35, 42, 45, 38, 32, 41, 37, 49], [49, 47, 41, 37, 34, 44, 49, 34, 42, 44, 32, 50, 35, 47, 49, 49, 40, 34, 33, 31, 46, 33, 35, 46, 32, 45, 35, 36, 46, 48, 30, 40, 31, 42, 39, 41, 41, 39, 46, 46, 40, 36, 35, 31, 43, 41, 31, 36, 31, 36, 50, 50, 30, 36, 38, 37, 30, 43, 45, 34], [38, 41, 37, 37, 34, 32, 39, 46, 35, 45, 30, 37, 47, 32, 45, 50, 44, 37, 47, 41, 41, 30, 46, 41, 36, 46, 36, 33, 50, 41, 41, 47, 34, 50, 30, 46, 32, 47, 49, 36, 35, 37, 35, 38, 45, 37, 32, 41, 46, 33, 34, 37, 46, 37, 42, 36, 44, 36, 49, 47]], [[0, 0, 0, 0, 0, 0, 0, 0, 0, 0, 0, 0, 0, 0, 0, 0, 0, 0, 0, 0, 0, 0, 0, 0, 0, 0, 0, 0, 0, 0, 0, 0, 0, 0, 0, 0, 0, 0, 0, 0, 0, 0, 0, 0, 0, 0, 0, 0, 0, 0, 0, 0, 0, 0, 0, 0, 0, 0, 0, 0], [0, 0, 0, 0, 0, 0, 0, 0, 0, 0, 0, 0, 0, 0, 0, 0, 0, 0, 0, 0, 0, 0, 0, 0, 0, 0, 0, 0, 0, 0, 0, 0, 0, 0, 0, 0, 0, 0, 0, 0, 0, 0, 0, 0, 0, 0, 0, 0, 0, 0, 0, 0, 0, 0, 0, 0, 0, 0, 0, 0], [0, 0, 0, 0, 0, 0, 0, 0, 0, 0, 0, 0, 0, 0, 0, 0, 0, 0, 0, 0, 0, 0, 0, 0, 0, 0, 0, 0, 0, 0, 0, 0, 0, 0, 0, 0, 0, 0, 0, 0, 0, 0, 0, 0, 0, 0, 0, 0, 0, 0, 0, 0, 0, 0, 0, 0, 0, 0, 0, 0], [0, 0, 0, 0, 0, 0, 0, 0, 0, 0, 0, 0, 0, 0, 0, 0, 0, 0, 0, 0, 0, 0, 0, 0, 0, 0, 0, 0, 0, 0, 0, 0, 0, 0, 0, 0, 0, 0, 0, 0, 0, 0, 0, 0, 0, 0, 0, 0, 0, 0, 0, 0, 0, 0, 0, 0, 0, 0, 0, 0], [46, 31, 44, 35, 44, 38, 39, 44, 44, 30, 32, 39, 35, 49, 33, 39, 46, 39, 42, 49, 44, 34, 49, 40, 42, 46, 41, 45, 42, 36, 32, 44, 46, 41, 45, 39, 32, 35, 36, 44, 38, 37, 46, 35, 31, 32, 42, 39, 49, 44, 37, 38, 39, 39, 39, 35, 49, 37, 41, 43], [31, 38, 39, 42, 47, 45, 43, 46, 44, 32, 47, 48, 36, 47, 35, 47, 46, 35, 31, 42, 41, 41, 37, 37, 32, 31, 38, 33, 43, 40, 50, 49, 50, 32, 32, 38, 32, 41, 45, 41, 30, 36, 33, 33, 32, 48, 38, 34, 41, 32, 45, 34, 44, 32, 35, 47, 36, 39, 39, 37], [37, 48, 43, 46, 43, 30, 35, 40, 30, 49, 39, 47, 39, 41, 48, 46, 35, 43, 46, 49, 34, 38, 32, 47, 33, 36, 48, 43, 39, 41, 40, 49, 48, 34, 50, 42, 36, 43, 32, 35, 35, 44, 45, 41, 43, 37, 35, 33, 32, 35, 40, 41, 42, 34, 31, 44, 43, 45, 39, 36], [42, 43, 46, 37, 48, 34, 42, 34, 33, 50, 38, 39, 35, 37, 45, 41, 49, 43, 44, 50, 45, 41, 37, 48, 38, 33, 45, 39, 30, 45, 48, 40, 32, 42, 43, 47, 49, 46, 37, 50, 41, 46, 43, 39, 43, 50, 44, 40, 42, 43, 34, 35, 34, 40, 30, 45, 39, 49, 35, 37], [33, 33, 31, 46, 33, 32, 36, 49, 49, 39, 39, 35, 43, 48, 33, 38, 39, 43, 30, 50, 50, 31, 47, 45, 45, 37, 43, 32, 43, 45, 49, 37, 33, 48, 30, 49, 41, 31, 41, 39, 47, 46, 38, 32, 36, 30, 37, 50, 37, 48, 47, 43, 40, 38, 30, 38, 40, 46, 32, 41], [34, 37, 47, 46, 39, 47, 35, 42, 33, 37, 46, 32, 46, 49, 31, 42, 40, 41, 34, 43, 35, 43, 42, 41, 40, 50, 33, 50, 39, 47, 46, 31, 32, 44, 43, 33, 45, 50, 47, 49, 50, 37, 41, 39, 44, 30, 46, 47, 35, 36, 48, 49, 49, 34, 40, 42, 49, 44, 34, 32]], [[0, 0, 0, 0, 0, 0, 0, 0, 0, 0, 0, 0, 0, 0, 0, 0, 0, 0, 0, 0, 0, 0, 0, 0, 0, 0, 0, 0, 0, 0, 0, 0, 0, 0, 0, 0, 0, 0, 0, 0, 0, 0, 0, 0, 0, 0, 0, 0, 0, 0, 0, 0, 0, 0, 0, 0, 0, 0, 0, 0], [0, 0, 0, 0, 0, 0, 0, 0, 0, 0, 0, 0, 0, 0, 0, 0, 0, 0, 0, 0, 0, 0, 0, 0, 0, 0, 0, 0, 0, 0, 0, 0, 0, 0, 0, 0, 0, 0, 0, 0, 0, 0, 0, 0, 0, 0, 0, 0, 0, 0, 0, 0, 0, 0, 0, 0, 0, 0, 0, 0], [0, 0, 0, 0, 0, 0, 0, 0, 0, 0, 0, 0, 0, 0, 0, 0, 0, 0, 0, 0, 0, 0, 0, 0, 0, 0, 0, 0, 0, 0, 0, 0, 0, 0, 0, 0, 0, 0, 0, 0, 0, 0, 0, 0, 0, 0, 0, 0, 0, 0, 0, 0, 0, 0, 0, 0, 0, 0, 0, 0], [0, 0, 0, 0, 0, 0, 0, 0, 0, 0, 0, 0, 0, 0, 0, 0, 0, 0, 0, 0, 0, 0, 0, 0, 0, 0, 0, 0, 0, 0, 0, 0, 0, 0, 0, 0, 0, 0, 0, 0, 0, 0, 0, 0, 0, 0, 0, 0, 0, 0, 0, 0, 0, 0, 0, 0, 0, 0, 0, 0], [0, 0, 0, 0, 0, 0, 0, 0, 0, 0, 0, 0, 0, 0, 0, 0, 0, 0, 0, 0, 0, 0, 0, 0, 0, 0, 0, 0, 0, 0, 0, 0, 0, 0, 0, 0, 0, 0, 0, 0, 0, 0, 0, 0, 0, 0, 0, 0, 0, 0, 0, 0, 0, 0, 0, 0, 0, 0, 0, 0], [38, 34, 49, 32, 41, 37, 48, 49, 50, 36, 30, 35, 37, 42, 42, 42, 48, 35, 30, 46, 43, 44, 46, 37, 30, 44, 49, 30, 49, 32, 45, 35, 41, 50, 42, 41, 41, 35, 47, 37, 31, 33, 44, 46, 36, 33, 44, 33, 39, 44, 39, 30, 42, 47, 32, 44, 46, 34, 34, 39], [47, 37, 44, 31, 44, 32, 41, 46, 48, 30, 39, 39, 40, 36, 30, 48, 31, 45, 31, 32, 49, 31, 31, 49, 34, 39, 32, 45, 32, 42, 40, 50, 33, 32, 37, 50, 31, 35, 46, 30, 42, 35, 39, 45, 49, 36, 33, 50, 43, 31, 42, 36, 39, 36, 36, 35, 39, 40, 41, 39], [48, 45, 30, 35, 49, 39, 37, 41, 34, 44, 44, 38, 43, 35, 31, 45, 37, 33, 40, 50, 46, 49, 47, 45, 40, 44, 35, 43, 50, 40, 31, 45, 32, 42, 38, 45, 36, 38, 31, 42, 34, 49, 37, 37, 46, 34, 47, 40, 41, 45, 43, 44, 34, 35, 32, 39, 43, 46, 36, 46], [43, 43, 36, 44, 49, 39, 39, 30, 49, 30, 49, 38, 39, 40, 40, 50, 45, 43, 36, 36, 34, 45, 50, 49, 36, 45, 31, 50, 42, 49, 32, 47, 30, 41, 50, 42, 47, 49, 36, 48, 38, 42, 47, 31, 46, 35, 50, 39, 46, 37, 48, 37, 47, 39, 48, 39, 39, 30, 34, 46], [44, 45, 31, 44, 42, 45, 37, 35, 47, 47, 44, 44, 41, 34, 39, 48, 49, 38, 36, 41, 46, 35, 36, 47, 37, 41, 49, 47, 32, 44, 41, 40, 30, 32, 48, 48, 39, 49, 31, 41, 43, 49, 48, 43, 30, 36, 36, 39, 49, 43, 41, 45, 43, 42, 50, 48, 42, 44, 35, 47]], [[0, 0, 0, 0, 0, 0, 0, 0, 0, 0, 0, 0, 0, 0, 0, 0, 0, 0, 0, 0, 0, 0, 0, 0, 0, 0, 0, 0, 0, 0, 0, 0, 0, 0, 0, 0, 0, 0, 0, 0, 0, 0, 0, 0, 0, 0, 0, 0, 0, 0, 0, 0, 0, 0, 0, 0, 0, 0, 0, 0], [0, 0, 0, 0, 0, 0, 0, 0, 0, 0, 0, 0, 0, 0, 0, 0, 0, 0, 0, 0, 0, 0, 0, 0, 0, 0, 0, 0, 0, 0, 0, 0, 0, 0, 0, 0, 0, 0, 0, 0, 0, 0, 0, 0, 0, 0, 0, 0, 0, 0, 0, 0, 0, 0, 0, 0, 0, 0, 0, 0], [0, 0, 0, 0, 0, 0, 0, 0, 0, 0, 0, 0, 0, 0, 0, 0, 0, 0, 0, 0, 0, 0, 0, 0, 0, 0, 0, 0, 0, 0, 0, 0, 0, 0, 0, 0, 0, 0, 0, 0, 0, 0, 0, 0, 0, 0, 0, 0, 0, 0, 0, 0, 0, 0, 0, 0, 0, 0, 0, 0], [0, 0, 0, 0, 0, 0, 0, 0, 0, 0, 0, 0, 0, 0, 0, 0, 0, 0, 0, 0, 0, 0, 0, 0, 0, 0, 0, 0, 0, 0, 0, 0, 0, 0, 0, 0, 0, 0, 0, 0, 0, 0, 0, 0, 0, 0, 0, 0, 0, 0, 0, 0, 0, 0, 0, 0, 0, 0, 0, 0], [0, 0, 0, 0, 0, 0, 0, 0, 0, 0, 0, 0, 0, 0, 0, 0, 0, 0, 0, 0, 0, 0, 0, 0, 0, 0, 0, 0, 0, 0, 0, 0, 0, 0, 0, 0, 0, 0, 0, 0, 0, 0, 0, 0, 0, 0, 0, 0, 0, 0, 0, 0, 0, 0, 0, 0, 0, 0, 0, 0], [0, 0, 0, 0, 0, 0, 0, 0, 0, 0, 0, 0, 0, 0, 0, 0, 0, 0, 0, 0, 0, 0, 0, 0, 0, 0, 0, 0, 0, 0, 0, 0, 0, 0, 0, 0, 0, 0, 0, 0, 0, 0, 0, 0, 0, 0, 0, 0, 0, 0, 0, 0, 0, 0, 0, 0, 0, 0, 0, 0], [30, 39, 45, 41, 50, 30, 48, 32, 45, 48, 40, 47, 46, 30, 48, 41, 45, 36, 42, 39, 34, 42, 43, 46, 48, 50, 40, 46, 41, 48, 49, 41, 37, 30, 35, 30, 44, 50, 37, 34, 36, 50, 39, 40, 35, 45, 33, 43, 44, 35, 48, 35, 39, 34, 36, 30, 45, 45, 49, 46], [40, 34, 30, 47, 37, 30, 48, 49, 41, 48, 45, 30, 38, 42, 46, 42, 30, 41, 50, 49, 32, 50, 44, 45, 32, 36, 49, 31, 50, 45, 45, 50, 39, 37, 30, 31, 32, 41, 49, 35, 33, 31, 32, 33, 46, 40, 45, 46, 47, 50, 33, 30, 49, 31, 42, 42, 38, 30, 38, 35], [50, 35, 40, 49, 49, 49, 32, 47, 45, 35, 36, 36, 36, 34, 43, 42, 30, 38, 36, 36, 36, 47, 48, 43, 47, 34, 38, 40, 47, 48, 33, 42, 33, 43, 49, 48, 32, 47, 32, 48, 33, 42, 38, 50, 42, 41, 30, 31, 39, 41, 30, 36, 45, 39, 30, 47, 50, 34, 37, 30], [31, 35, 46, 46, 46, 36, 40, 45, 35, 30, 30, 49, 33, 45, 50, 30, 40, 30, 48, 45, 33, 42, 50, 37, 31, 40, 42, 43, 33, 39, 48, 42, 37, 33, 43, 33, 40, 39, 39, 32, 43, 45, 44, 48, 37, 38, 32, 42, 33, 37, 34, 38, 36, 41, 41, 38, 39, 30, 35, 45]], [[0, 0, 0, 0, 0, 0, 0, 0, 0, 0, 0, 0, 0, 0, 0, 0, 0, 0, 0, 0, 0, 0, 0, 0, 0, 0, 0, 0, 0, 0, 0, 0, 0, 0, 0, 0, 0, 0, 0, 0, 0, 0, 0, 0, 0, 0, 0, 0, 0, 0, 0, 0, 0, 0, 0, 0, 0, 0, 0, 0], [0, 0, 0, 0, 0, 0, 0, 0, 0, 0, 0, 0, 0, 0, 0, 0, 0, 0, 0, 0, 0, 0, 0, 0, 0, 0, 0, 0, 0, 0, 0, 0, 0, 0, 0, 0, 0, 0, 0, 0, 0, 0, 0, 0, 0, 0, 0, 0, 0, 0, 0, 0, 0, 0, 0, 0, 0, 0, 0, 0], [0, 0, 0, 0, 0, 0, 0, 0, 0, 0, 0, 0, 0, 0, 0, 0, 0, 0, 0, 0, 0, 0, 0, 0, 0, 0, 0, 0, 0, 0, 0, 0, 0, 0, 0, 0, 0, 0, 0, 0, 0, 0, 0, 0, 0, 0, 0, 0, 0, 0, 0, 0, 0, 0, 0, 0, 0, 0, 0, 0], [0, 0, 0, 0, 0, 0, 0, 0, 0, 0, 0, 0, 0, 0, 0, 0, 0, 0, 0, 0, 0, 0, 0, 0, 0, 0, 0, 0, 0, 0, 0, 0, 0, 0, 0, 0, 0, 0, 0, 0, 0, 0, 0, 0, 0, 0, 0, 0, 0, 0, 0, 0, 0, 0, 0, 0, 0, 0, 0, 0], [0, 0, 0, 0, 0, 0, 0, 0, 0, 0, 0, 0, 0, 0, 0, 0, 0, 0, 0, 0, 0, 0, 0, 0, 0, 0, 0, 0, 0, 0, 0, 0, 0, 0, 0, 0, 0, 0, 0, 0, 0, 0, 0, 0, 0, 0, 0, 0, 0, 0, 0, 0, 0, 0, 0, 0, 0, 0, 0, 0], [0, 0, 0, 0, 0, 0, 0, 0, 0, 0, 0, 0, 0, 0, 0, 0, 0, 0, 0, 0, 0, 0, 0, 0, 0, 0, 0, 0, 0, 0, 0, 0, 0, 0, 0, 0, 0, 0, 0, 0, 0, 0, 0, 0, 0, 0, 0, 0, 0, 0, 0, 0, 0, 0, 0, 0, 0, 0, 0, 0], [0, 0, 0, 0, 0, 0, 0, 0, 0, 0, 0, 0, 0, 0, 0, 0, 0, 0, 0, 0, 0, 0, 0, 0, 0, 0, 0, 0, 0, 0, 0, 0, 0, 0, 0, 0, 0, 0, 0, 0, 0, 0, 0, 0, 0, 0, 0, 0, 0, 0, 0, 0, 0, 0, 0, 0, 0, 0, 0, 0], [38, 50, 39, 35, 46, 48, 44, 45, 45, 31, 33, 39, 47, 38, 39, 40, 32, 35, 30, 48, 42, 35, 42, 46, 31, 35, 44, 34, 36, 39, 46, 42, 42, 35, 48, 34, 34, 44, 37, 44, 35, 34, 49, 31, 42, 35, 41, 44, 38, 50, 39, 36, 35, 38, 33, 43, 30, 39, 45, 36], [50, 30, 44, 37, 30, 44, 44, 46, 31, 36, 44, 37, 47, 48, 44, 30, 48, 46, 50, 30, 39, 45, 36, 37, 49, 38, 32, 47, 37, 48, 40, 49, 48, 42, 44, 34, 48, 32, 47, 48, 36, 43, 43, 32, 42, 38, 40, 42, 32, 41, 31, 35, 49, 31, 32, 32, 37, 36, 39, 39], [50, 48, 48, 40, 35, 39, 47, 50, 31, 39, 49, 38, 41, 47, 49, 35, 42, 32, 48, 32, 45, 35, 48, 49, 42, 48, 49, 50, 43, 34, 40, 46, 44, 36, 40, 40, 41, 39, 44, 31, 36, 35, 37, 45, 45, 41, 30, 37, 34, 34, 31, 40, 41, 34, 39, 42, 47, 49, 47, 40]], [[0, 0, 0, 0, 0, 0, 0, 0, 0, 0, 0, 0, 0, 0, 0, 0, 0, 0, 0, 0, 0, 0, 0, 0, 0, 0, 0, 0, 0, 0, 0, 0, 0, 0, 0, 0, 0, 0, 0, 0, 0, 0, 0, 0, 0, 0, 0, 0, 0, 0, 0, 0, 0, 0, 0, 0, 0, 0, 0, 0], [0, 0, 0, 0, 0, 0, 0, 0, 0, 0, 0, 0, 0, 0, 0, 0, 0, 0, 0, 0, 0, 0, 0, 0, 0, 0, 0, 0, 0, 0, 0, 0, 0, 0, 0, 0, 0, 0, 0, 0, 0, 0, 0, 0, 0, 0, 0, 0, 0, 0, 0, 0, 0, 0, 0, 0, 0, 0, 0, 0], [0, 0, 0, 0, 0, 0, 0, 0, 0, 0, 0, 0, 0, 0, 0, 0, 0, 0, 0, 0, 0, 0, 0, 0, 0, 0, 0, 0, 0, 0, 0, 0, 0, 0, 0, 0, 0, 0, 0, 0, 0, 0, 0, 0, 0, 0, 0, 0, 0, 0, 0, 0, 0, 0, 0, 0, 0, 0, 0, 0], [0, 0, 0, 0, 0, 0, 0, 0, 0, 0, 0, 0, 0, 0, 0, 0, 0, 0, 0, 0, 0, 0, 0, 0, 0, 0, 0, 0, 0, 0, 0, 0, 0, 0, 0, 0, 0, 0, 0, 0, 0, 0, 0, 0, 0, 0, 0, 0, 0, 0, 0, 0, 0, 0, 0, 0, 0, 0, 0, 0], [0, 0, 0, 0, 0, 0, 0, 0, 0, 0, 0, 0, 0, 0, 0, 0, 0, 0, 0, 0, 0, 0, 0, 0, 0, 0, 0, 0, 0, 0, 0, 0, 0, 0, 0, 0, 0, 0, 0, 0, 0, 0, 0, 0, 0, 0, 0, 0, 0, 0, 0, 0, 0, 0, 0, 0, 0, 0, 0, 0], [0, 0, 0, 0, 0, 0, 0, 0, 0, 0, 0, 0, 0, 0, 0, 0, 0, 0, 0, 0, 0, 0, 0, 0, 0, 0, 0, 0, 0, 0, 0, 0, 0, 0, 0, 0, 0, 0, 0, 0, 0, 0, 0, 0, 0, 0, 0, 0, 0, 0, 0, 0, 0, 0, 0, 0, 0, 0, 0, 0], [0, 0, 0, 0, 0, 0, 0, 0, 0, 0, 0, 0, 0, 0, 0, 0, 0, 0, 0, 0, 0, 0, 0, 0, 0, 0, 0, 0, 0, 0, 0, 0, 0, 0, 0, 0, 0, 0, 0, 0, 0, 0, 0, 0, 0, 0, 0, 0, 0, 0, 0, 0, 0, 0, 0, 0, 0, 0, 0, 0], [0, 0, 0, 0, 0, 0, 0, 0, 0, 0, 0, 0, 0, 0, 0, 0, 0, 0, 0, 0, 0, 0, 0, 0, 0, 0, 0, 0, 0, 0, 0, 0, 0, 0, 0, 0, 0, 0, 0, 0, 0, 0, 0, 0, 0, 0, 0, 0, 0, 0, 0, 0, 0, 0, 0, 0, 0, 0, 0, 0], [42, 37, 45, 38, 36, 38, 41, 35, 46, 37, 47, 41, 46, 37, 44, 33, 47, 31, 36, 49, 34, 31, 40, 36, 40, 31, 44, 48, 36, 46, 42, 50, 37, 36, 34, 44, 35, 39, 48, 44, 31, 33, 31, 50, 45, 38, 35, 31, 50, 31, 44, 33, 50, 50, 42, 32, 42, 34, 33, 31], [39, 45, 30, 36, 37, 44, 39, 50, 44, 31, 40, 45, 47, 44, 46, 44, 49, 50, 47, 42, 33, 34, 34, 34, 33, 37, 32, 36, 33, 31, 37, 35, 49, 50, 43, 42, 42, 50, 46, 30, 50, 48, 49, 45, 38, 48, 50, 39, 31, 31, 34, 38, 33, 45, 42, 46, 35, 36, 43, 47]], [[0, 0, 0, 0, 0, 0, 0, 0, 0, 0, 0, 0, 0, 0, 0, 0, 0, 0, 0, 0, 0, 0, 0, 0, 0, 0, 0, 0, 0, 0, 0, 0, 0, 0, 0, 0, 0, 0, 0, 0, 0, 0, 0, 0, 0, 0, 0, 0, 0, 0, 0, 0, 0, 0, 0, 0, 0, 0, 0, 0], [0, 0, 0, 0, 0, 0, 0, 0, 0, 0, 0, 0, 0, 0, 0, 0, 0, 0, 0, 0, 0, 0, 0, 0, 0, 0, 0, 0, 0, 0, 0, 0, 0, 0, 0, 0, 0, 0, 0, 0, 0, 0, 0, 0, 0, 0, 0, 0, 0, 0, 0, 0, 0, 0, 0, 0, 0, 0, 0, 0], [0, 0, 0, 0, 0, 0, 0, 0, 0, 0, 0, 0, 0, 0, 0, 0, 0, 0, 0, 0, 0, 0, 0, 0, 0, 0, 0, 0, 0, 0, 0, 0, 0, 0, 0, 0, 0, 0, 0, 0, 0, 0, 0, 0, 0, 0, 0, 0, 0, 0, 0, 0, 0, 0, 0, 0, 0, 0, 0, 0], [0, 0, 0, 0, 0, 0, 0, 0, 0, 0, 0, 0, 0, 0, 0, 0, 0, 0, 0, 0, 0, 0, 0, 0, 0, 0, 0, 0, 0, 0, 0, 0, 0, 0, 0, 0, 0, 0, 0, 0, 0, 0, 0, 0, 0, 0, 0, 0, 0, 0, 0, 0, 0, 0, 0, 0, 0, 0, 0, 0], [0, 0, 0, 0, 0, 0, 0, 0, 0, 0, 0, 0, 0, 0, 0, 0, 0, 0, 0, 0, 0, 0, 0, 0, 0, 0, 0, 0, 0, 0, 0, 0, 0, 0, 0, 0, 0, 0, 0, 0, 0, 0, 0, 0, 0, 0, 0, 0, 0, 0, 0, 0, 0, 0, 0, 0, 0, 0, 0, 0], [0, 0, 0, 0, 0, 0, 0, 0, 0, 0, 0, 0, 0, 0, 0, 0, 0, 0, 0, 0, 0, 0, 0, 0, 0, 0, 0, 0, 0, 0, 0, 0, 0, 0, 0, 0, 0, 0, 0, 0, 0, 0, 0, 0, 0, 0, 0, 0, 0, 0, 0, 0, 0, 0, 0, 0, 0, 0, 0, 0], [0, 0, 0, 0, 0, 0, 0, 0, 0, 0, 0, 0, 0, 0, 0, 0, 0, 0, 0, 0, 0, 0, 0, 0, 0, 0, 0, 0, 0, 0, 0, 0, 0, 0, 0, 0, 0, 0, 0, 0, 0, 0, 0, 0, 0, 0, 0, 0, 0, 0, 0, 0, 0, 0, 0, 0, 0, 0, 0, 0], [0, 0, 0, 0, 0, 0, 0, 0, 0, 0, 0, 0, 0, 0, 0, 0, 0, 0, 0, 0, 0, 0, 0, 0, 0, 0, 0, 0, 0, 0, 0, 0, 0, 0, 0, 0, 0, 0, 0, 0, 0, 0, 0, 0, 0, 0, 0, 0, 0, 0, 0, 0, 0, 0, 0, 0, 0, 0, 0, 0], [0, 0, 0, 0, 0, 0, 0, 0, 0, 0, 0, 0, 0, 0, 0, 0, 0, 0, 0, 0, 0, 0, 0, 0, 0, 0, 0, 0, 0, 0, 0, 0, 0, 0, 0, 0, 0, 0, 0, 0, 0, 0, 0, 0, 0, 0, 0, 0, 0, 0, 0, 0, 0, 0, 0, 0, 0, 0, 0, 0], [37, 37, 50, 41, 38, 39, 43, 35, 50, 42, 46, 47, 39, 48, 45, 30, 32, 37, 40, 43, 39, 37, 31, 43, 36, 37, 30, 42, 34, 39, 35, 32, 30, 30, 33, 33, 41, 40, 36, 37, 49, 48, 41, 46, 35, 50, 36, 38, 42, 30, 38, 49, 48, 40, 36, 48, 50, 33, 32, 30]], [[0, 0, 0, 0, 0, 0, 0, 0, 0, 0, 0, 0, 0, 0, 0, 0, 0, 0, 0, 0, 0, 0, 0, 0, 0, 0, 0, 0, 0, 0, 0, 0, 0, 0, 0, 0, 0, 0, 0, 0, 0, 0, 0, 0, 0, 0, 0, 0, 0, 0, 0, 0, 0, 0, 0, 0, 0, 0, 0, 0], [0, 0, 0, 0, 0, 0, 0, 0, 0, 0, 0, 0, 0, 0, 0, 0, 0, 0, 0, 0, 0, 0, 0, 0, 0, 0, 0, 0, 0, 0, 0, 0, 0, 0, 0, 0, 0, 0, 0, 0, 0, 0, 0, 0, 0, 0, 0, 0, 0, 0, 0, 0, 0, 0, 0, 0, 0, 0, 0, 0], [0, 0, 0, 0, 0, 0, 0, 0, 0, 0, 0, 0, 0, 0, 0, 0, 0, 0, 0, 0, 0, 0, 0, 0, 0, 0, 0, 0, 0, 0, 0, 0, 0, 0, 0, 0, 0, 0, 0, 0, 0, 0, 0, 0, 0, 0, 0, 0, 0, 0, 0, 0, 0, 0, 0, 0, 0, 0, 0, 0], [0, 0, 0, 0, 0, 0, 0, 0, 0, 0, 0, 0, 0, 0, 0, 0, 0, 0, 0, 0, 0, 0, 0, 0, 0, 0, 0, 0, 0, 0, 0, 0, 0, 0, 0, 0, 0, 0, 0, 0, 0, 0, 0, 0, 0, 0, 0, 0, 0, 0, 0, 0, 0, 0, 0, 0, 0, 0, 0, 0], [0, 0, 0, 0, 0, 0, 0, 0, 0, 0, 0, 0, 0, 0, 0, 0, 0, 0, 0, 0, 0, 0, 0, 0, 0, 0, 0, 0, 0, 0, 0, 0, 0, 0, 0, 0, 0, 0, 0, 0, 0, 0, 0, 0, 0, 0, 0, 0, 0, 0, 0, 0, 0, 0, 0, 0, 0, 0, 0, 0], [0, 0, 0, 0, 0, 0, 0, 0, 0, 0, 0, 0, 0, 0, 0, 0, 0, 0, 0, 0, 0, 0, 0, 0, 0, 0, 0, 0, 0, 0, 0, 0, 0, 0, 0, 0, 0, 0, 0, 0, 0, 0, 0, 0, 0, 0, 0, 0, 0, 0, 0, 0, 0, 0, 0, 0, 0, 0, 0, 0], [0, 0, 0, 0, 0, 0, 0, 0, 0, 0, 0, 0, 0, 0, 0, 0, 0, 0, 0, 0, 0, 0, 0, 0, 0, 0, 0, 0, 0, 0, 0, 0, 0, 0, 0, 0, 0, 0, 0, 0, 0, 0, 0, 0, 0, 0, 0, 0, 0, 0, 0, 0, 0, 0, 0, 0, 0, 0, 0, 0], [0, 0, 0, 0, 0, 0, 0, 0, 0, 0, 0, 0, 0, 0, 0, 0, 0, 0, 0, 0, 0, 0, 0, 0, 0, 0, 0, 0, 0, 0, 0, 0, 0, 0, 0, 0, 0, 0, 0, 0, 0, 0, 0, 0, 0, 0, 0, 0, 0, 0, 0, 0, 0, 0, 0, 0, 0, 0, 0, 0], [0, 0, 0, 0, 0, 0, 0, 0, 0, 0, 0, 0, 0, 0, 0, 0, 0, 0, 0, 0, 0, 0, 0, 0, 0, 0, 0, 0, 0, 0, 0, 0, 0, 0, 0, 0, 0, 0, 0, 0, 0, 0, 0, 0, 0, 0, 0, 0, 0, 0, 0, 0, 0, 0, 0, 0, 0, 0, 0, 0], [0, 0, 0, 0, 0, 0, 0, 0, 0, 0, 0, 0, 0, 0, 0, 0, 0, 0, 0, 0, 0, 0, 0, 0, 0, 0, 0, 0, 0, 0, 0, 0, 0, 0, 0, 0, 0, 0, 0, 0, 0, 0, 0, 0, 0, 0, 0, 0, 0, 0, 0, 0, 0, 0, 0, 0, 0, 0, 0, 0]]];

q = [[[5, 119], [5, 108], [6, 118], [14, 120], [22, 117], [22, 106], [18, 120], [5, 122], [6, 113], [15, 109], [18, 117], [23, 125], [17, 113], [8, 120], [8, 117], [25, 124], [13, 114], [24, 107], [18, 113], [14, 110], [6, 115], [13, 106], [11, 115], [13, 116], [14, 108], [7, 109], [11, 109], [9, 106], [20, 114], [8, 125], [6, 120], [8, 112], [15, 118], [9, 109], [9, 113], [19, 118], [22, 106], [21, 108], [8, 106], [12, 121], [6, 112], [11, 122], [7, 115], [20, 106], [11, 105], [23, 108], [14, 107], [19, 113], [23, 106], [20, 121], [10, 121], [6, 123], [16, 123], [13, 108], [24, 124], [24, 106], [10, 112], [20, 111], [14, 110], [16, 118]], [[11, 111], [11, 122], [14, 110], [11, 108], [8, 105], [15, 109], [17, 122], [18, 110], [19, 111], [5, 113], [10, 116], [23, 120], [15, 115], [10, 105], [12, 124], [6, 108], [11, 111], [22, 115], [19, 122], [12, 108], [22, 107], [12, 109], [7, 121], [7, 110], [21, 125], [9, 118], [7, 120], [20, 119], [11, 110], [19, 106], [6, 115], [20, 111], [22, 113], [5, 113], [14, 112], [21, 123], [15, 123], [17, 111], [17, 120], [19, 122], [5, 120], [22, 124], [5, 111], [5, 120], [17, 108], [24, 113], [12, 111], [16, 115], [19, 110], [11, 116], [6, 110], [12, 114], [24, 113], [18, 115], [24, 106], [23, 120], [13, 123], [11, 113], [20, 115], [19, 111]], [[6, 111], [21, 118], [24, 122], [14, 115], [12, 125], [18, 107], [23, 107], [25, 119], [10, 107], [10, 121], [7, 105], [7, 118], [25, 116], [17, 118], [24, 125], [8, 110], [17, 108], [5, 108], [8, 120], [24, 118], [6, 124], [13, 121], [15, 121], [17, 114], [14, 106], [5, 116], [25, 124], [5, 120], [19, 106], [20, 124], [15, 122], [18, 119], [16, 118], [9, 113], [7, 116], [18, 117], [6, 122], [7, 108], [10, 110], [6, 118], [25, 111], [24, 108], [6, 112], [7, 125], [15, 116], [18, 108], [13, 108], [13, 123], [22, 109], [20, 112], [19, 115], [7, 105], [17, 114], [5, 113], [18, 117], [18, 110], [9, 110], [16, 108], [20, 122], [17, 105]], [[24, 107], [15, 125], [16, 118], [25, 111], [21, 118], [16, 112], [5, 115], [15, 115], [21, 110], [23, 116], [15, 116], [23, 123], [13, 118], [19, 112], [18, 118], [13, 115], [16, 124], [7, 123], [11, 125], [20, 119], [5, 112], [17, 106], [21, 116], [14, 123], [14, 105], [7, 110], [10, 118], [17, 106], [22, 112], [6, 117], [21, 111], [18, 108], [7, 121], [19, 108], [8, 118], [16, 105], [21, 123], [24, 110], [20, 118], [8, 116], [16, 112], [14, 105], [10, 107], [24, 121], [14, 105], [9, 105], [24, 107], [12, 109], [23, 115], [15, 110], [8, 124], [25, 119], [6, 125], [13, 122], [25, 120], [6, 114], [15, 123], [21, 117], [5, 107], [17, 125]], [[20, 121], [16, 110], [20, 117], [6, 120], [25, 111], [16, 107], [19, 107], [20, 107], [12, 106], [7, 107], [24, 125], [13, 125], [14, 122], [18, 114], [22, 105], [20, 123], [17, 123], [21, 116], [6, 125], [13, 122], [13, 108], [25, 123], [19, 108], [25, 117], [19, 124], [7, 113], [24, 111], [5, 111], [24, 122], [17, 105], [25, 121], [15, 109], [14, 122], [10, 106], [8, 106], [13, 122], [5, 106], [20, 121], [17, 123], [22, 125], [18, 116], [7, 105], [5, 110], [24, 106], [23, 125], [10, 114], [13, 110], [22, 116], [16, 109], [15, 110], [9, 118], [13, 113], [11, 116], [24, 123], [7, 109], [14, 106], [18, 123], [11, 118], [17, 113], [6, 110]], [[13, 118], [23, 115], [15, 122], [5, 124], [21, 125], [17, 111], [16, 122], [16, 111], [18, 110], [18, 107], [19, 125], [5, 125], [19, 120], [21, 105], [24, 122], [7, 118], [16, 119], [6, 106], [19, 117], [14, 107], [15, 111], [15, 120], [8, 125], [25, 123], [6, 120], [24, 108], [8, 106], [18, 112], [10, 122], [17, 125], [13, 120], [19, 107], [20, 105], [8, 120], [8, 120], [16, 111], [11, 122], [18, 122], [17, 105], [15, 115], [18, 107], [8, 117], [6, 107], [21, 107], [12, 117], [15, 106], [12, 116], [21, 114], [22, 106], [17, 124], [20, 112], [20, 125], [20, 110], [16, 111], [6, 117], [11, 110], [17, 107], [12, 119], [19, 118], [11, 114]], [[18, 108], [21, 109], [16, 125], [19, 122], [21, 118], [11, 118], [21, 110], [22, 105], [12, 113], [14, 123], [20, 112], [19, 108], [19, 109], [7, 123], [7, 119], [8, 117], [19, 120], [21, 118], [22, 125], [11, 111], [8, 116], [8, 124], [12, 124], [12, 116], [7, 116], [5, 109], [5, 120], [23, 124], [8, 121], [11, 109], [15, 107], [11, 116], [24, 105], [9, 122], [21, 112], [18, 112], [25, 106], [10, 119], [19, 124], [19, 112], [10, 112], [13, 124], [21, 110], [5, 122], [15, 124], [16, 116], [5, 111], [22, 115], [12, 117], [24, 110], [24, 114], [18, 124], [24, 123], [14, 111], [6, 111], [9, 120], [10, 105], [15, 112], [25, 109], [20, 125]], [[8, 111], [13, 115], [20, 121], [9, 111], [19, 115], [15, 125], [12, 125], [25, 121], [8, 119], [18, 107], [20, 115], [12, 115], [25, 113], [17, 115], [15, 121], [7, 117], [15, 123], [9, 124], [23, 119], [25, 125], [6, 117], [20, 124], [5, 114], [9, 112], [21, 110], [16, 105], [21, 125], [10, 106], [22, 123], [10, 125], [17, 122], [25, 125], [7, 109], [21, 122], [18, 117], [5, 105], [25, 110], [14, 117], [25, 108], [13, 117], [17, 109], [11, 114], [8, 121], [17, 121], [18, 107], [13, 108], [9, 121], [20, 121], [5, 113], [12, 108], [19, 108], [16, 111], [14, 115], [15, 122], [8, 116], [22, 112], [22, 117], [11, 113], [14, 118], [16, 124]], [[18, 110], [24, 120], [15, 113], [20, 118], [8, 114], [12, 110], [11, 110], [23, 111], [24, 112], [8, 124], [23, 114], [15, 114], [24, 106], [22, 109], [17, 113], [17, 118], [8, 107], [13, 111], [18, 105], [6, 121], [21, 107], [13, 118], [9, 123], [18, 107], [8, 119], [16, 109], [16, 125], [12, 119], [25, 114], [20, 117], [24, 122], [9, 119], [21, 120], [18, 107], [17, 108], [9, 116], [25, 119], [17, 118], [20, 107], [12, 119], [18, 109], [17, 110], [15, 121], [10, 109], [19, 110], [11, 117], [8, 122], [9, 123], [18, 120], [5, 117], [17, 107], [23, 112], [14, 107], [17, 119], [6, 120], [13, 122], [20, 109], [23, 121], [12, 106], [23, 115]], [[13, 123], [10, 118], [21, 105], [6, 114], [18, 122], [23, 117], [9, 108], [24, 110], [9, 110], [10, 108], [5, 111], [12, 115], [19, 119], [11, 120], [24, 123], [6, 110], [21, 119], [14, 107], [10, 111], [22, 110], [18, 110], [22, 123], [12, 108], [6, 105], [15, 111], [25, 121], [21, 119], [15, 105], [13, 125], [17, 105], [24, 124], [12, 107], [13, 120], [12, 120], [20, 113], [13, 115], [18, 117], [24, 125], [11, 121], [6, 123], [9, 124], [17, 114], [21, 105], [18, 124], [24, 120], [15, 111], [16, 122], [14, 118], [24, 111], [10, 105], [11, 115], [16, 109], [5, 125], [25, 109], [21, 121], [16, 120], [24, 108], [12, 115], [24, 125], [13, 117]]];
Q = [[66, 547], [69, 549], [69, 552], [74, 552], [75, 551], [72, 553], [72, 556], [72, 558], [76, 550], [75, 554]];
